n = 6;
t = 3;
r = 2;
d = 1;

P =
  [
    [ 0 0 0 0 1 1 ]
    [ 0 0 1 0 1 0 ]
    [ 0 1 0 0 0 0 ]
    [ 0 0 0 0 0 0 ]
    [ 1 1 0 0 0 0 ]
    [ 1 0 0 0 0 0 ]
  ];

S =
  [
    [ 0 1 0 0 0 0 ]
    [ 1 0 0 0 0 0 ]
    [ 0 0 0 0 1 1 ]
    [ 0 0 0 0 1 1 ]
    [ 0 0 1 1 0 1 ]
    [ 0 0 1 1 1 0 ]
  ];